c uprop, v00.0, 
c reading from data/prog359.c.cnf
c done reading: 0.002389
p cnf 112 484
-60 -75 0
60 75 0
-64 -66 0
64 66 0
-68 -71 0
68 71 0
-62 -73 0
62 73 0
-70 -77 0
70 77 0
-79 -81 0
79 81 0
60 -83 0
-60 83 0
57 -60 -64 0
57 -64 0
57 -60 0
-57 60 64 0
-56 -57 64 0
-56 -57 60 0
56 57 -64 0
56 57 -60 0
56 57 0
56 -60 -64 0
55 -64 -68 0
55 -57 -68 0
55 -57 -64 0
-55 64 68 0
-55 57 68 0
-55 57 64 0
-54 -55 68 0
-54 -55 64 0
-54 -55 57 0
54 55 -68 0
54 55 -64 0
54 55 -57 0
54 -57 -64 -68 0
-54 57 64 68 0
53 -68 -73 0
53 -55 -73 0
53 -55 -68 0
-53 68 73 0
-53 55 73 0
-53 55 68 0
-52 -53 73 0
-52 -53 68 0
-52 -53 55 0
52 53 -73 0
52 53 -68 0
52 53 -55 0
52 -55 -68 -73 0
-52 55 68 73 0
51 -73 -77 0
51 -53 -77 0
51 -53 -73 0
-51 73 77 0
-51 53 77 0
-51 53 73 0
-50 -51 77 0
-50 -51 73 0
-50 -51 53 0
50 51 -77 0
50 51 -73 0
50 51 -53 0
50 -53 -73 -77 0
-50 53 73 77 0
49 -77 -81 0
49 -51 -81 0
49 -51 -77 0
-49 77 81 0
-49 51 81 0
-49 51 77 0
-48 -49 81 0
-48 -49 77 0
-48 -49 51 0
48 49 -81 0
48 49 -77 0
48 49 -51 0
48 -51 -77 -81 0
-48 51 77 81 0
-58 81 0
49 -58 0
-49 58 -81 0
-49 -61 -81 0
49 -61 81 0
49 61 -81 0
-49 61 81 0
-65 83 0
65 -83 0
-69 -83 0
69 83 0
-56 74 0
-56 -65 74 0
-65 74 0
56 65 -74 0
56 -74 -78 0
65 -74 -78 0
-56 74 78 0
74 78 0
-65 74 78 0
-56 -65 78 0
-54 -60 82 0
-54 -74 82 0
-60 -74 82 0
54 60 -82 0
54 74 -82 0
60 74 -82 0
54 -82 -84 0
60 -82 -84 0
74 -82 -84 0
-54 82 84 0
-60 82 84 0
-74 82 84 0
-54 -60 -74 84 0
54 60 74 -84 0
-52 -64 85 0
-52 -82 85 0
-64 -82 85 0
52 64 -85 0
52 82 -85 0
64 82 -85 0
52 -85 -86 0
64 -85 -86 0
82 -85 -86 0
-52 85 86 0
-64 85 86 0
-82 85 86 0
-52 -64 -82 86 0
52 64 82 -86 0
-50 -68 87 0
-50 -85 87 0
-68 -85 87 0
50 68 -87 0
50 85 -87 0
68 85 -87 0
50 -87 -88 0
68 -87 -88 0
85 -87 -88 0
-50 87 88 0
-68 87 88 0
-85 87 88 0
-50 -68 -85 88 0
50 68 85 -88 0
-48 -73 89 0
-48 -87 89 0
-73 -87 89 0
48 73 -89 0
48 87 -89 0
73 87 -89 0
48 -89 -90 0
73 -89 -90 0
87 -89 -90 0
-48 89 90 0
-73 89 90 0
-87 89 90 0
-48 -73 -87 90 0
48 73 87 -90 0
-61 -77 91 0
-61 -89 91 0
-77 -89 91 0
61 77 -91 0
61 89 -91 0
77 89 -91 0
61 -91 -92 0
77 -91 -92 0
89 -91 -92 0
-61 91 92 0
-77 91 92 0
-89 91 92 0
-61 -77 -89 92 0
61 77 89 -92 0
-58 -81 93 0
-58 -91 93 0
-81 -91 93 0
58 81 -93 0
58 91 -93 0
81 91 -93 0
58 -93 -94 0
81 -93 -94 0
91 -93 -94 0
-58 93 94 0
-81 93 94 0
-91 93 94 0
-58 -81 -91 94 0
58 81 91 -94 0
78 -95 0
-78 95 0
-78 -96 0
78 96 0
-84 97 0
-84 -95 97 0
-95 97 0
84 95 -97 0
84 -97 -98 0
95 -97 -98 0
-84 97 98 0
97 98 0
-95 97 98 0
-84 -95 98 0
-60 -86 99 0
-86 -97 99 0
-60 -97 99 0
60 86 -99 0
86 97 -99 0
60 97 -99 0
86 -99 -100 0
60 -99 -100 0
97 -99 -100 0
-86 99 100 0
-60 99 100 0
-97 99 100 0
-60 -86 -97 100 0
60 86 97 -100 0
-64 -88 101 0
-88 -99 101 0
-64 -99 101 0
64 88 -101 0
88 99 -101 0
64 99 -101 0
88 -101 -102 0
64 -101 -102 0
99 -101 -102 0
-88 101 102 0
-64 101 102 0
-99 101 102 0
-64 -88 -99 102 0
64 88 99 -102 0
-68 -90 103 0
-90 -101 103 0
-68 -101 103 0
68 90 -103 0
90 101 -103 0
68 101 -103 0
90 -103 -104 0
68 -103 -104 0
101 -103 -104 0
-90 103 104 0
-68 103 104 0
-101 103 104 0
-68 -90 -101 104 0
68 90 101 -104 0
-73 -92 105 0
-92 -103 105 0
-73 -103 105 0
73 92 -105 0
92 103 -105 0
73 103 -105 0
92 -105 -106 0
73 -105 -106 0
103 -105 -106 0
-92 105 106 0
-73 105 106 0
-103 105 106 0
-73 -92 -103 106 0
73 92 103 -106 0
-77 -94 107 0
-94 -105 107 0
-77 -105 107 0
77 94 -107 0
94 105 -107 0
77 105 -107 0
94 -107 -108 0
77 -107 -108 0
105 -107 -108 0
-94 107 108 0
-77 107 108 0
-105 107 108 0
-77 -94 -105 108 0
77 94 105 -108 0
-81 -93 109 0
-93 -107 109 0
-81 -107 109 0
81 93 -109 0
93 107 -109 0
81 107 -109 0
93 -109 -110 0
81 -109 -110 0
107 -109 -110 0
-93 109 110 0
-81 109 110 0
-107 109 110 0
-81 -93 -107 110 0
81 93 107 -110 0
-69 -111 0
69 111 0
-96 -112 0
96 112 0
-47 -98 0
47 98 0
-46 -100 0
46 100 0
-45 -102 0
45 102 0
-44 -104 0
44 104 0
-43 -106 0
43 106 0
-42 -108 0
42 108 0
-41 -110 0
41 110 0
-40 -109 0
40 109 0
-37 -39 0
-36 -37 0
36 37 39 0
-34 36 39 0
-34 -36 -39 0
34 36 -39 0
34 -36 39 0
-33 37 0
-32 -33 0
32 33 -37 0
-30 32 -37 0
-30 -32 37 0
30 32 37 0
30 -32 -37 0
-29 33 0
-28 -29 0
28 29 -33 0
-26 28 -33 0
-26 -28 33 0
26 28 33 0
26 -28 -33 0
-25 29 0
-24 -25 0
24 25 -29 0
-22 24 -29 0
-22 -24 29 0
22 24 29 0
22 -24 -29 0
-21 25 0
-20 -21 0
20 21 -25 0
-18 20 -25 0
-18 -20 25 0
18 20 25 0
18 -20 -25 0
-17 21 0
-16 -17 0
16 17 -21 0
-14 16 -21 0
-14 -16 21 0
14 16 21 0
14 -16 -21 0
-13 17 0
-12 -13 0
12 13 -17 0
12 -17 -59 0
-12 17 -59 0
12 17 59 0
-12 -17 59 0
-39 -63 0
-36 -63 0
36 39 63 0
36 39 -67 0
-36 -39 -67 0
36 -39 67 0
-36 39 67 0
63 -72 0
-32 -72 0
32 -63 72 0
32 -63 -76 0
-32 63 -76 0
32 63 76 0
-32 -63 76 0
72 -80 0
-28 -80 0
28 -72 80 0
28 -38 -72 0
-28 -38 72 0
28 38 72 0
-28 38 -72 0
-35 80 0
-24 -35 0
24 35 -80 0
24 -31 -80 0
-24 -31 80 0
24 31 80 0
-24 31 -80 0
-27 35 0
-20 -27 0
20 27 -35 0
20 -23 -35 0
-20 -23 35 0
20 23 35 0
-20 23 -35 0
-19 27 0
-16 -19 0
16 19 -27 0
-15 16 -27 0
-15 -16 27 0
15 16 27 0
15 -16 -27 0
-11 19 0
-11 -12 0
11 12 -19 0
-10 12 -19 0
-10 -12 19 0
10 12 19 0
10 -12 -19 0
-9 69 0
-9 39 0
9 -39 -69 0
-39 -69 0
39 69 0
8 -36 -96 0
8 -9 -96 0
8 -9 -36 0
-8 36 96 0
-8 9 96 0
-8 9 36 0
8 -96 0
8 -36 0
8 -9 0
-9 -36 -96 0
7 -32 -98 0
7 -8 -98 0
7 -8 -32 0
-7 32 98 0
-7 8 98 0
-7 8 32 0
7 -98 0
7 -32 0
7 -8 0
-8 -32 -98 0
6 -28 -100 0
6 -7 -100 0
6 -7 -28 0
-6 28 100 0
-6 7 100 0
-6 7 28 0
6 -100 0
6 -28 0
6 -7 0
-7 -28 -100 0
5 -24 -102 0
5 -6 -102 0
5 -6 -24 0
-5 24 102 0
-5 6 102 0
-5 6 24 0
5 -102 0
5 -24 0
5 -6 0
-6 -24 -102 0
4 -20 -104 0
4 -5 -104 0
4 -5 -20 0
-4 20 104 0
-4 5 104 0
-4 5 20 0
4 -104 0
4 -20 0
4 -5 0
-5 -20 -104 0
3 -16 -106 0
3 -4 -106 0
3 -4 -16 0
-3 16 106 0
-3 4 106 0
-3 4 16 0
3 -106 0
3 -16 0
3 -4 0
-4 -16 -106 0
2 -12 -108 0
2 -3 -108 0
2 -3 -12 0
-2 12 108 0
-2 3 108 0
-2 3 12 0
2 -108 0
2 -12 0
2 -3 0
-3 -12 -108 0
-1 110 0
-1 2 0
1 -2 -110 0
2 -110 0
-2 110 0
-1 -109 0
1 -109 0
-1 109 0
